\ Model VRPSPD
\ LP format - for model browsing. Use MPS format to capture full model detail.
Minimize
  300 x[0,1,1] + 300 x[0,1,2] + 300 x[0,1,3] + 713 x[0,2,1] + 713 x[0,2,2]
   + 713 x[0,2,3] + 890 x[0,3,1] + 890 x[0,3,2] + 890 x[0,3,3]
   + 828 x[0,4,1] + 828 x[0,4,2] + 828 x[0,4,3] + 978 x[0,5,1]
   + 978 x[0,5,2] + 978 x[0,5,3] + 1202 x[0,6,1] + 1202 x[0,6,2]
   + 1202 x[0,6,3] + 476 x[0,7,1] + 476 x[0,7,2] + 476 x[0,7,3]
   + 974 x[0,8,1] + 974 x[0,8,2] + 974 x[0,8,3] + 1253 x[0,9,1]
   + 1253 x[0,9,2] + 1253 x[0,9,3] + 300 x[1,0,1] + 300 x[1,0,2]
   + 300 x[1,0,3] + 825 x[1,2,1] + 825 x[1,2,2] + 825 x[1,2,3]
   + 721 x[1,3,1] + 721 x[1,3,2] + 721 x[1,3,3] + 990 x[1,4,1]
   + 990 x[1,4,2] + 990 x[1,4,3] + 1031 x[1,5,1] + 1031 x[1,5,2]
   + 1031 x[1,5,3] + 1048 x[1,6,1] + 1048 x[1,6,2] + 1048 x[1,6,3]
   + 281 x[1,7,1] + 281 x[1,7,2] + 281 x[1,7,3] + 1029 x[1,8,1]
   + 1029 x[1,8,2] + 1029 x[1,8,3] + 1092 x[1,9,1] + 1092 x[1,9,2]
   + 1092 x[1,9,3] + 713 x[2,0,1] + 713 x[2,0,2] + 713 x[2,0,3]
   + 825 x[2,1,1] + 825 x[2,1,2] + 825 x[2,1,3] + 746 x[2,3,1]
   + 746 x[2,3,2] + 746 x[2,3,3] + 1468 x[2,4,1] + 1468 x[2,4,2]
   + 1468 x[2,4,3] + 1681 x[2,5,1] + 1681 x[2,5,2] + 1681 x[2,5,3]
   + 903 x[2,6,1] + 903 x[2,6,2] + 903 x[2,6,3] + 689 x[2,7,1]
   + 689 x[2,7,2] + 689 x[2,7,3] + 1676 x[2,8,1] + 1676 x[2,8,2]
   + 1676 x[2,8,3] + 961 x[2,9,1] + 961 x[2,9,2] + 961 x[2,9,3]
   + 890 x[3,0,1] + 890 x[3,0,2] + 890 x[3,0,3] + 721 x[3,1,1]
   + 721 x[3,1,2] + 721 x[3,1,3] + 746 x[3,2,1] + 746 x[3,2,2]
   + 746 x[3,2,3] + 1696 x[3,4,1] + 1696 x[3,4,2] + 1696 x[3,4,3]
   + 1749 x[3,5,1] + 1749 x[3,5,2] + 1749 x[3,5,3] + 328 x[3,6,1]
   + 328 x[3,6,2] + 328 x[3,6,3] + 441 x[3,7,1] + 441 x[3,7,2]
   + 441 x[3,7,3] + 1747 x[3,8,1] + 1747 x[3,8,2] + 1747 x[3,8,3]
   + 371 x[3,9,1] + 371 x[3,9,2] + 371 x[3,9,3] + 828 x[4,0,1]
   + 828 x[4,0,2] + 828 x[4,0,3] + 990 x[4,1,1] + 990 x[4,1,2]
   + 990 x[4,1,3] + 1467 x[4,2,1] + 1467 x[4,2,2] + 1467 x[4,2,3]
   + 1696 x[4,3,1] + 1696 x[4,3,2] + 1696 x[4,3,3] + 385 x[4,5,1]
   + 385 x[4,5,2] + 385 x[4,5,3] + 2018 x[4,6,1] + 2018 x[4,6,2]
   + 2018 x[4,6,3] + 1257 x[4,7,1] + 1257 x[4,7,2] + 1257 x[4,7,3]
   + 379 x[4,8,1] + 379 x[4,8,2] + 379 x[4,8,3] + 2066 x[4,9,1]
   + 2066 x[4,9,2] + 2066 x[4,9,3] + 978 x[5,0,1] + 978 x[5,0,2]
   + 978 x[5,0,3] + 1031 x[5,1,1] + 1031 x[5,1,2] + 1031 x[5,1,3]
   + 1680 x[5,2,1] + 1680 x[5,2,2] + 1680 x[5,2,3] + 1749 x[5,3,1]
   + 1749 x[5,3,2] + 1749 x[5,3,3] + 385 x[5,4,1] + 385 x[5,4,2]
   + 385 x[5,4,3] + 2077 x[5,6,1] + 2077 x[5,6,2] + 2077 x[5,6,3]
   + 1313 x[5,7,1] + 1313 x[5,7,2] + 1313 x[5,7,3] + 6 x[5,8,1]
   + 6 x[5,8,2] + 6 x[5,8,3] + 2118 x[5,9,1] + 2118 x[5,9,2]
   + 2118 x[5,9,3] + 1202 x[6,0,1] + 1202 x[6,0,2] + 1202 x[6,0,3]
   + 1048 x[6,1,1] + 1048 x[6,1,2] + 1048 x[6,1,3] + 903 x[6,2,1]
   + 903 x[6,2,2] + 903 x[6,2,3] + 328 x[6,3,1] + 328 x[6,3,2]
   + 328 x[6,3,3] + 2018 x[6,4,1] + 2018 x[6,4,2] + 2018 x[6,4,3]
   + 2077 x[6,5,1] + 2077 x[6,5,2] + 2077 x[6,5,3] + 768 x[6,7,1]
   + 768 x[6,7,2] + 768 x[6,7,3] + 2075 x[6,8,1] + 2075 x[6,8,2]
   + 2075 x[6,8,3] + 59 x[6,9,1] + 59 x[6,9,2] + 59 x[6,9,3] + 476 x[7,0,1]
   + 476 x[7,0,2] + 476 x[7,0,3] + 281 x[7,1,1] + 281 x[7,1,2]
   + 281 x[7,1,3] + 689 x[7,2,1] + 689 x[7,2,2] + 689 x[7,2,3]
   + 441 x[7,3,1] + 441 x[7,3,2] + 441 x[7,3,3] + 1257 x[7,4,1]
   + 1257 x[7,4,2] + 1257 x[7,4,3] + 1313 x[7,5,1] + 1313 x[7,5,2]
   + 1313 x[7,5,3] + 768 x[7,6,1] + 768 x[7,6,2] + 768 x[7,6,3]
   + 1310 x[7,8,1] + 1310 x[7,8,2] + 1310 x[7,8,3] + 812 x[7,9,1]
   + 812 x[7,9,2] + 812 x[7,9,3] + 974 x[8,0,1] + 974 x[8,0,2]
   + 974 x[8,0,3] + 1029 x[8,1,1] + 1029 x[8,1,2] + 1029 x[8,1,3]
   + 1676 x[8,2,1] + 1676 x[8,2,2] + 1676 x[8,2,3] + 1747 x[8,3,1]
   + 1747 x[8,3,2] + 1747 x[8,3,3] + 379 x[8,4,1] + 379 x[8,4,2]
   + 379 x[8,4,3] + 6 x[8,5,1] + 6 x[8,5,2] + 6 x[8,5,3] + 2075 x[8,6,1]
   + 2075 x[8,6,2] + 2075 x[8,6,3] + 1310 x[8,7,1] + 1310 x[8,7,2]
   + 1310 x[8,7,3] + 2116 x[8,9,1] + 2116 x[8,9,2] + 2116 x[8,9,3]
   + 1253 x[9,0,1] + 1253 x[9,0,2] + 1253 x[9,0,3] + 1092 x[9,1,1]
   + 1092 x[9,1,2] + 1092 x[9,1,3] + 961 x[9,2,1] + 961 x[9,2,2]
   + 961 x[9,2,3] + 371 x[9,3,1] + 371 x[9,3,2] + 371 x[9,3,3]
   + 2066 x[9,4,1] + 2066 x[9,4,2] + 2066 x[9,4,3] + 2118 x[9,5,1]
   + 2118 x[9,5,2] + 2118 x[9,5,3] + 59 x[9,6,1] + 59 x[9,6,2]
   + 59 x[9,6,3] + 812 x[9,7,1] + 812 x[9,7,2] + 812 x[9,7,3]
   + 2116 x[9,8,1] + 2116 x[9,8,2] + 2116 x[9,8,3]
Subject To
 X_ijk_eq_1[1]: x[0,1,1] + x[0,1,2] + x[0,1,3] + x[1,1,1] + x[1,1,2]
   + x[1,1,3] + x[2,1,1] + x[2,1,2] + x[2,1,3] + x[3,1,1] + x[3,1,2]
   + x[3,1,3] + x[4,1,1] + x[4,1,2] + x[4,1,3] + x[5,1,1] + x[5,1,2]
   + x[5,1,3] + x[6,1,1] + x[6,1,2] + x[6,1,3] + x[7,1,1] + x[7,1,2]
   + x[7,1,3] + x[8,1,1] + x[8,1,2] + x[8,1,3] + x[9,1,1] + x[9,1,2]
   + x[9,1,3] = 1
 X_ijk_eq_1[2]: x[0,2,1] + x[0,2,2] + x[0,2,3] + x[1,2,1] + x[1,2,2]
   + x[1,2,3] + x[2,2,1] + x[2,2,2] + x[2,2,3] + x[3,2,1] + x[3,2,2]
   + x[3,2,3] + x[4,2,1] + x[4,2,2] + x[4,2,3] + x[5,2,1] + x[5,2,2]
   + x[5,2,3] + x[6,2,1] + x[6,2,2] + x[6,2,3] + x[7,2,1] + x[7,2,2]
   + x[7,2,3] + x[8,2,1] + x[8,2,2] + x[8,2,3] + x[9,2,1] + x[9,2,2]
   + x[9,2,3] = 1
 X_ijk_eq_1[3]: x[0,3,1] + x[0,3,2] + x[0,3,3] + x[1,3,1] + x[1,3,2]
   + x[1,3,3] + x[2,3,1] + x[2,3,2] + x[2,3,3] + x[3,3,1] + x[3,3,2]
   + x[3,3,3] + x[4,3,1] + x[4,3,2] + x[4,3,3] + x[5,3,1] + x[5,3,2]
   + x[5,3,3] + x[6,3,1] + x[6,3,2] + x[6,3,3] + x[7,3,1] + x[7,3,2]
   + x[7,3,3] + x[8,3,1] + x[8,3,2] + x[8,3,3] + x[9,3,1] + x[9,3,2]
   + x[9,3,3] = 1
 X_ijk_eq_1[4]: x[0,4,1] + x[0,4,2] + x[0,4,3] + x[1,4,1] + x[1,4,2]
   + x[1,4,3] + x[2,4,1] + x[2,4,2] + x[2,4,3] + x[3,4,1] + x[3,4,2]
   + x[3,4,3] + x[4,4,1] + x[4,4,2] + x[4,4,3] + x[5,4,1] + x[5,4,2]
   + x[5,4,3] + x[6,4,1] + x[6,4,2] + x[6,4,3] + x[7,4,1] + x[7,4,2]
   + x[7,4,3] + x[8,4,1] + x[8,4,2] + x[8,4,3] + x[9,4,1] + x[9,4,2]
   + x[9,4,3] = 1
 X_ijk_eq_1[5]: x[0,5,1] + x[0,5,2] + x[0,5,3] + x[1,5,1] + x[1,5,2]
   + x[1,5,3] + x[2,5,1] + x[2,5,2] + x[2,5,3] + x[3,5,1] + x[3,5,2]
   + x[3,5,3] + x[4,5,1] + x[4,5,2] + x[4,5,3] + x[5,5,1] + x[5,5,2]
   + x[5,5,3] + x[6,5,1] + x[6,5,2] + x[6,5,3] + x[7,5,1] + x[7,5,2]
   + x[7,5,3] + x[8,5,1] + x[8,5,2] + x[8,5,3] + x[9,5,1] + x[9,5,2]
   + x[9,5,3] = 1
 X_ijk_eq_1[6]: x[0,6,1] + x[0,6,2] + x[0,6,3] + x[1,6,1] + x[1,6,2]
   + x[1,6,3] + x[2,6,1] + x[2,6,2] + x[2,6,3] + x[3,6,1] + x[3,6,2]
   + x[3,6,3] + x[4,6,1] + x[4,6,2] + x[4,6,3] + x[5,6,1] + x[5,6,2]
   + x[5,6,3] + x[6,6,1] + x[6,6,2] + x[6,6,3] + x[7,6,1] + x[7,6,2]
   + x[7,6,3] + x[8,6,1] + x[8,6,2] + x[8,6,3] + x[9,6,1] + x[9,6,2]
   + x[9,6,3] = 1
 X_ijk_eq_1[7]: x[0,7,1] + x[0,7,2] + x[0,7,3] + x[1,7,1] + x[1,7,2]
   + x[1,7,3] + x[2,7,1] + x[2,7,2] + x[2,7,3] + x[3,7,1] + x[3,7,2]
   + x[3,7,3] + x[4,7,1] + x[4,7,2] + x[4,7,3] + x[5,7,1] + x[5,7,2]
   + x[5,7,3] + x[6,7,1] + x[6,7,2] + x[6,7,3] + x[7,7,1] + x[7,7,2]
   + x[7,7,3] + x[8,7,1] + x[8,7,2] + x[8,7,3] + x[9,7,1] + x[9,7,2]
   + x[9,7,3] = 1
 X_ijk_eq_1[8]: x[0,8,1] + x[0,8,2] + x[0,8,3] + x[1,8,1] + x[1,8,2]
   + x[1,8,3] + x[2,8,1] + x[2,8,2] + x[2,8,3] + x[3,8,1] + x[3,8,2]
   + x[3,8,3] + x[4,8,1] + x[4,8,2] + x[4,8,3] + x[5,8,1] + x[5,8,2]
   + x[5,8,3] + x[6,8,1] + x[6,8,2] + x[6,8,3] + x[7,8,1] + x[7,8,2]
   + x[7,8,3] + x[8,8,1] + x[8,8,2] + x[8,8,3] + x[9,8,1] + x[9,8,2]
   + x[9,8,3] = 1
 X_ijk_eq_1[9]: x[0,9,1] + x[0,9,2] + x[0,9,3] + x[1,9,1] + x[1,9,2]
   + x[1,9,3] + x[2,9,1] + x[2,9,2] + x[2,9,3] + x[3,9,1] + x[3,9,2]
   + x[3,9,3] + x[4,9,1] + x[4,9,2] + x[4,9,3] + x[5,9,1] + x[5,9,2]
   + x[5,9,3] + x[6,9,1] + x[6,9,2] + x[6,9,3] + x[7,9,1] + x[7,9,2]
   + x[7,9,3] + x[8,9,1] + x[8,9,2] + x[8,9,3] + x[9,9,1] + x[9,9,2]
   + x[9,9,3] = 1
 chega_e_sai[0,1]: - x[0,1,1] - x[0,2,1] - x[0,3,1] - x[0,4,1] - x[0,5,1]
   - x[0,6,1] - x[0,7,1] - x[0,8,1] - x[0,9,1] + x[1,0,1] + x[2,0,1]
   + x[3,0,1] + x[4,0,1] + x[5,0,1] + x[6,0,1] + x[7,0,1] + x[8,0,1]
   + x[9,0,1] = 0
 chega_e_sai[0,2]: - x[0,1,2] - x[0,2,2] - x[0,3,2] - x[0,4,2] - x[0,5,2]
   - x[0,6,2] - x[0,7,2] - x[0,8,2] - x[0,9,2] + x[1,0,2] + x[2,0,2]
   + x[3,0,2] + x[4,0,2] + x[5,0,2] + x[6,0,2] + x[7,0,2] + x[8,0,2]
   + x[9,0,2] = 0
 chega_e_sai[0,3]: - x[0,1,3] - x[0,2,3] - x[0,3,3] - x[0,4,3] - x[0,5,3]
   - x[0,6,3] - x[0,7,3] - x[0,8,3] - x[0,9,3] + x[1,0,3] + x[2,0,3]
   + x[3,0,3] + x[4,0,3] + x[5,0,3] + x[6,0,3] + x[7,0,3] + x[8,0,3]
   + x[9,0,3] = 0
 chega_e_sai[1,1]: x[0,1,1] - x[1,0,1] - x[1,2,1] - x[1,3,1] - x[1,4,1]
   - x[1,5,1] - x[1,6,1] - x[1,7,1] - x[1,8,1] - x[1,9,1] + x[2,1,1]
   + x[3,1,1] + x[4,1,1] + x[5,1,1] + x[6,1,1] + x[7,1,1] + x[8,1,1]
   + x[9,1,1] = 0
 chega_e_sai[1,2]: x[0,1,2] - x[1,0,2] - x[1,2,2] - x[1,3,2] - x[1,4,2]
   - x[1,5,2] - x[1,6,2] - x[1,7,2] - x[1,8,2] - x[1,9,2] + x[2,1,2]
   + x[3,1,2] + x[4,1,2] + x[5,1,2] + x[6,1,2] + x[7,1,2] + x[8,1,2]
   + x[9,1,2] = 0
 chega_e_sai[1,3]: x[0,1,3] - x[1,0,3] - x[1,2,3] - x[1,3,3] - x[1,4,3]
   - x[1,5,3] - x[1,6,3] - x[1,7,3] - x[1,8,3] - x[1,9,3] + x[2,1,3]
   + x[3,1,3] + x[4,1,3] + x[5,1,3] + x[6,1,3] + x[7,1,3] + x[8,1,3]
   + x[9,1,3] = 0
 chega_e_sai[2,1]: x[0,2,1] + x[1,2,1] - x[2,0,1] - x[2,1,1] - x[2,3,1]
   - x[2,4,1] - x[2,5,1] - x[2,6,1] - x[2,7,1] - x[2,8,1] - x[2,9,1]
   + x[3,2,1] + x[4,2,1] + x[5,2,1] + x[6,2,1] + x[7,2,1] + x[8,2,1]
   + x[9,2,1] = 0
 chega_e_sai[2,2]: x[0,2,2] + x[1,2,2] - x[2,0,2] - x[2,1,2] - x[2,3,2]
   - x[2,4,2] - x[2,5,2] - x[2,6,2] - x[2,7,2] - x[2,8,2] - x[2,9,2]
   + x[3,2,2] + x[4,2,2] + x[5,2,2] + x[6,2,2] + x[7,2,2] + x[8,2,2]
   + x[9,2,2] = 0
 chega_e_sai[2,3]: x[0,2,3] + x[1,2,3] - x[2,0,3] - x[2,1,3] - x[2,3,3]
   - x[2,4,3] - x[2,5,3] - x[2,6,3] - x[2,7,3] - x[2,8,3] - x[2,9,3]
   + x[3,2,3] + x[4,2,3] + x[5,2,3] + x[6,2,3] + x[7,2,3] + x[8,2,3]
   + x[9,2,3] = 0
 chega_e_sai[3,1]: x[0,3,1] + x[1,3,1] + x[2,3,1] - x[3,0,1] - x[3,1,1]
   - x[3,2,1] - x[3,4,1] - x[3,5,1] - x[3,6,1] - x[3,7,1] - x[3,8,1]
   - x[3,9,1] + x[4,3,1] + x[5,3,1] + x[6,3,1] + x[7,3,1] + x[8,3,1]
   + x[9,3,1] = 0
 chega_e_sai[3,2]: x[0,3,2] + x[1,3,2] + x[2,3,2] - x[3,0,2] - x[3,1,2]
   - x[3,2,2] - x[3,4,2] - x[3,5,2] - x[3,6,2] - x[3,7,2] - x[3,8,2]
   - x[3,9,2] + x[4,3,2] + x[5,3,2] + x[6,3,2] + x[7,3,2] + x[8,3,2]
   + x[9,3,2] = 0
 chega_e_sai[3,3]: x[0,3,3] + x[1,3,3] + x[2,3,3] - x[3,0,3] - x[3,1,3]
   - x[3,2,3] - x[3,4,3] - x[3,5,3] - x[3,6,3] - x[3,7,3] - x[3,8,3]
   - x[3,9,3] + x[4,3,3] + x[5,3,3] + x[6,3,3] + x[7,3,3] + x[8,3,3]
   + x[9,3,3] = 0
 chega_e_sai[4,1]: x[0,4,1] + x[1,4,1] + x[2,4,1] + x[3,4,1] - x[4,0,1]
   - x[4,1,1] - x[4,2,1] - x[4,3,1] - x[4,5,1] - x[4,6,1] - x[4,7,1]
   - x[4,8,1] - x[4,9,1] + x[5,4,1] + x[6,4,1] + x[7,4,1] + x[8,4,1]
   + x[9,4,1] = 0
 chega_e_sai[4,2]: x[0,4,2] + x[1,4,2] + x[2,4,2] + x[3,4,2] - x[4,0,2]
   - x[4,1,2] - x[4,2,2] - x[4,3,2] - x[4,5,2] - x[4,6,2] - x[4,7,2]
   - x[4,8,2] - x[4,9,2] + x[5,4,2] + x[6,4,2] + x[7,4,2] + x[8,4,2]
   + x[9,4,2] = 0
 chega_e_sai[4,3]: x[0,4,3] + x[1,4,3] + x[2,4,3] + x[3,4,3] - x[4,0,3]
   - x[4,1,3] - x[4,2,3] - x[4,3,3] - x[4,5,3] - x[4,6,3] - x[4,7,3]
   - x[4,8,3] - x[4,9,3] + x[5,4,3] + x[6,4,3] + x[7,4,3] + x[8,4,3]
   + x[9,4,3] = 0
 chega_e_sai[5,1]: x[0,5,1] + x[1,5,1] + x[2,5,1] + x[3,5,1] + x[4,5,1]
   - x[5,0,1] - x[5,1,1] - x[5,2,1] - x[5,3,1] - x[5,4,1] - x[5,6,1]
   - x[5,7,1] - x[5,8,1] - x[5,9,1] + x[6,5,1] + x[7,5,1] + x[8,5,1]
   + x[9,5,1] = 0
 chega_e_sai[5,2]: x[0,5,2] + x[1,5,2] + x[2,5,2] + x[3,5,2] + x[4,5,2]
   - x[5,0,2] - x[5,1,2] - x[5,2,2] - x[5,3,2] - x[5,4,2] - x[5,6,2]
   - x[5,7,2] - x[5,8,2] - x[5,9,2] + x[6,5,2] + x[7,5,2] + x[8,5,2]
   + x[9,5,2] = 0
 chega_e_sai[5,3]: x[0,5,3] + x[1,5,3] + x[2,5,3] + x[3,5,3] + x[4,5,3]
   - x[5,0,3] - x[5,1,3] - x[5,2,3] - x[5,3,3] - x[5,4,3] - x[5,6,3]
   - x[5,7,3] - x[5,8,3] - x[5,9,3] + x[6,5,3] + x[7,5,3] + x[8,5,3]
   + x[9,5,3] = 0
 chega_e_sai[6,1]: x[0,6,1] + x[1,6,1] + x[2,6,1] + x[3,6,1] + x[4,6,1]
   + x[5,6,1] - x[6,0,1] - x[6,1,1] - x[6,2,1] - x[6,3,1] - x[6,4,1]
   - x[6,5,1] - x[6,7,1] - x[6,8,1] - x[6,9,1] + x[7,6,1] + x[8,6,1]
   + x[9,6,1] = 0
 chega_e_sai[6,2]: x[0,6,2] + x[1,6,2] + x[2,6,2] + x[3,6,2] + x[4,6,2]
   + x[5,6,2] - x[6,0,2] - x[6,1,2] - x[6,2,2] - x[6,3,2] - x[6,4,2]
   - x[6,5,2] - x[6,7,2] - x[6,8,2] - x[6,9,2] + x[7,6,2] + x[8,6,2]
   + x[9,6,2] = 0
 chega_e_sai[6,3]: x[0,6,3] + x[1,6,3] + x[2,6,3] + x[3,6,3] + x[4,6,3]
   + x[5,6,3] - x[6,0,3] - x[6,1,3] - x[6,2,3] - x[6,3,3] - x[6,4,3]
   - x[6,5,3] - x[6,7,3] - x[6,8,3] - x[6,9,3] + x[7,6,3] + x[8,6,3]
   + x[9,6,3] = 0
 chega_e_sai[7,1]: x[0,7,1] + x[1,7,1] + x[2,7,1] + x[3,7,1] + x[4,7,1]
   + x[5,7,1] + x[6,7,1] - x[7,0,1] - x[7,1,1] - x[7,2,1] - x[7,3,1]
   - x[7,4,1] - x[7,5,1] - x[7,6,1] - x[7,8,1] - x[7,9,1] + x[8,7,1]
   + x[9,7,1] = 0
 chega_e_sai[7,2]: x[0,7,2] + x[1,7,2] + x[2,7,2] + x[3,7,2] + x[4,7,2]
   + x[5,7,2] + x[6,7,2] - x[7,0,2] - x[7,1,2] - x[7,2,2] - x[7,3,2]
   - x[7,4,2] - x[7,5,2] - x[7,6,2] - x[7,8,2] - x[7,9,2] + x[8,7,2]
   + x[9,7,2] = 0
 chega_e_sai[7,3]: x[0,7,3] + x[1,7,3] + x[2,7,3] + x[3,7,3] + x[4,7,3]
   + x[5,7,3] + x[6,7,3] - x[7,0,3] - x[7,1,3] - x[7,2,3] - x[7,3,3]
   - x[7,4,3] - x[7,5,3] - x[7,6,3] - x[7,8,3] - x[7,9,3] + x[8,7,3]
   + x[9,7,3] = 0
 chega_e_sai[8,1]: x[0,8,1] + x[1,8,1] + x[2,8,1] + x[3,8,1] + x[4,8,1]
   + x[5,8,1] + x[6,8,1] + x[7,8,1] - x[8,0,1] - x[8,1,1] - x[8,2,1]
   - x[8,3,1] - x[8,4,1] - x[8,5,1] - x[8,6,1] - x[8,7,1] - x[8,9,1]
   + x[9,8,1] = 0
 chega_e_sai[8,2]: x[0,8,2] + x[1,8,2] + x[2,8,2] + x[3,8,2] + x[4,8,2]
   + x[5,8,2] + x[6,8,2] + x[7,8,2] - x[8,0,2] - x[8,1,2] - x[8,2,2]
   - x[8,3,2] - x[8,4,2] - x[8,5,2] - x[8,6,2] - x[8,7,2] - x[8,9,2]
   + x[9,8,2] = 0
 chega_e_sai[8,3]: x[0,8,3] + x[1,8,3] + x[2,8,3] + x[3,8,3] + x[4,8,3]
   + x[5,8,3] + x[6,8,3] + x[7,8,3] - x[8,0,3] - x[8,1,3] - x[8,2,3]
   - x[8,3,3] - x[8,4,3] - x[8,5,3] - x[8,6,3] - x[8,7,3] - x[8,9,3]
   + x[9,8,3] = 0
 chega_e_sai[9,1]: x[0,9,1] + x[1,9,1] + x[2,9,1] + x[3,9,1] + x[4,9,1]
   + x[5,9,1] + x[6,9,1] + x[7,9,1] + x[8,9,1] - x[9,0,1] - x[9,1,1]
   - x[9,2,1] - x[9,3,1] - x[9,4,1] - x[9,5,1] - x[9,6,1] - x[9,7,1]
   - x[9,8,1] = 0
 chega_e_sai[9,2]: x[0,9,2] + x[1,9,2] + x[2,9,2] + x[3,9,2] + x[4,9,2]
   + x[5,9,2] + x[6,9,2] + x[7,9,2] + x[8,9,2] - x[9,0,2] - x[9,1,2]
   - x[9,2,2] - x[9,3,2] - x[9,4,2] - x[9,5,2] - x[9,6,2] - x[9,7,2]
   - x[9,8,2] = 0
 chega_e_sai[9,3]: x[0,9,3] + x[1,9,3] + x[2,9,3] + x[3,9,3] + x[4,9,3]
   + x[5,9,3] + x[6,9,3] + x[7,9,3] + x[8,9,3] - x[9,0,3] - x[9,1,3]
   - x[9,2,3] - x[9,3,3] - x[9,4,3] - x[9,5,3] - x[9,6,3] - x[9,7,3]
   - x[9,8,3] = 0
 max_k_veiculos[1]: x[0,1,1] + x[0,2,1] + x[0,3,1] + x[0,4,1] + x[0,5,1]
   + x[0,6,1] + x[0,7,1] + x[0,8,1] + x[0,9,1] <= 1
 max_k_veiculos[2]: x[0,1,2] + x[0,2,2] + x[0,3,2] + x[0,4,2] + x[0,5,2]
   + x[0,6,2] + x[0,7,2] + x[0,8,2] + x[0,9,2] <= 1
 max_k_veiculos[3]: x[0,1,3] + x[0,2,3] + x[0,3,3] + x[0,4,3] + x[0,5,3]
   + x[0,6,3] + x[0,7,3] + x[0,8,3] + x[0,9,3] <= 1
 distancia_max_k[1]: 300 x[0,1,1] + 713 x[0,2,1] + 890 x[0,3,1]
   + 828 x[0,4,1] + 978 x[0,5,1] + 1202 x[0,6,1] + 476 x[0,7,1]
   + 974 x[0,8,1] + 1253 x[0,9,1] + 300 x[1,0,1] + 825 x[1,2,1]
   + 721 x[1,3,1] + 990 x[1,4,1] + 1031 x[1,5,1] + 1048 x[1,6,1]
   + 281 x[1,7,1] + 1029 x[1,8,1] + 1092 x[1,9,1] + 713 x[2,0,1]
   + 825 x[2,1,1] + 746 x[2,3,1] + 1468 x[2,4,1] + 1681 x[2,5,1]
   + 903 x[2,6,1] + 689 x[2,7,1] + 1676 x[2,8,1] + 961 x[2,9,1]
   + 890 x[3,0,1] + 721 x[3,1,1] + 746 x[3,2,1] + 1696 x[3,4,1]
   + 1749 x[3,5,1] + 328 x[3,6,1] + 441 x[3,7,1] + 1747 x[3,8,1]
   + 371 x[3,9,1] + 828 x[4,0,1] + 990 x[4,1,1] + 1467 x[4,2,1]
   + 1696 x[4,3,1] + 385 x[4,5,1] + 2018 x[4,6,1] + 1257 x[4,7,1]
   + 379 x[4,8,1] + 2066 x[4,9,1] + 978 x[5,0,1] + 1031 x[5,1,1]
   + 1680 x[5,2,1] + 1749 x[5,3,1] + 385 x[5,4,1] + 2077 x[5,6,1]
   + 1313 x[5,7,1] + 6 x[5,8,1] + 2118 x[5,9,1] + 1202 x[6,0,1]
   + 1048 x[6,1,1] + 903 x[6,2,1] + 328 x[6,3,1] + 2018 x[6,4,1]
   + 2077 x[6,5,1] + 768 x[6,7,1] + 2075 x[6,8,1] + 59 x[6,9,1]
   + 476 x[7,0,1] + 281 x[7,1,1] + 689 x[7,2,1] + 441 x[7,3,1]
   + 1257 x[7,4,1] + 1313 x[7,5,1] + 768 x[7,6,1] + 1310 x[7,8,1]
   + 812 x[7,9,1] + 974 x[8,0,1] + 1029 x[8,1,1] + 1676 x[8,2,1]
   + 1747 x[8,3,1] + 379 x[8,4,1] + 6 x[8,5,1] + 2075 x[8,6,1]
   + 1310 x[8,7,1] + 2116 x[8,9,1] + 1253 x[9,0,1] + 1092 x[9,1,1]
   + 961 x[9,2,1] + 371 x[9,3,1] + 2066 x[9,4,1] + 2118 x[9,5,1]
   + 59 x[9,6,1] + 812 x[9,7,1] + 2116 x[9,8,1] <= 7000
 distancia_max_k[2]: 300 x[0,1,2] + 713 x[0,2,2] + 890 x[0,3,2]
   + 828 x[0,4,2] + 978 x[0,5,2] + 1202 x[0,6,2] + 476 x[0,7,2]
   + 974 x[0,8,2] + 1253 x[0,9,2] + 300 x[1,0,2] + 825 x[1,2,2]
   + 721 x[1,3,2] + 990 x[1,4,2] + 1031 x[1,5,2] + 1048 x[1,6,2]
   + 281 x[1,7,2] + 1029 x[1,8,2] + 1092 x[1,9,2] + 713 x[2,0,2]
   + 825 x[2,1,2] + 746 x[2,3,2] + 1468 x[2,4,2] + 1681 x[2,5,2]
   + 903 x[2,6,2] + 689 x[2,7,2] + 1676 x[2,8,2] + 961 x[2,9,2]
   + 890 x[3,0,2] + 721 x[3,1,2] + 746 x[3,2,2] + 1696 x[3,4,2]
   + 1749 x[3,5,2] + 328 x[3,6,2] + 441 x[3,7,2] + 1747 x[3,8,2]
   + 371 x[3,9,2] + 828 x[4,0,2] + 990 x[4,1,2] + 1467 x[4,2,2]
   + 1696 x[4,3,2] + 385 x[4,5,2] + 2018 x[4,6,2] + 1257 x[4,7,2]
   + 379 x[4,8,2] + 2066 x[4,9,2] + 978 x[5,0,2] + 1031 x[5,1,2]
   + 1680 x[5,2,2] + 1749 x[5,3,2] + 385 x[5,4,2] + 2077 x[5,6,2]
   + 1313 x[5,7,2] + 6 x[5,8,2] + 2118 x[5,9,2] + 1202 x[6,0,2]
   + 1048 x[6,1,2] + 903 x[6,2,2] + 328 x[6,3,2] + 2018 x[6,4,2]
   + 2077 x[6,5,2] + 768 x[6,7,2] + 2075 x[6,8,2] + 59 x[6,9,2]
   + 476 x[7,0,2] + 281 x[7,1,2] + 689 x[7,2,2] + 441 x[7,3,2]
   + 1257 x[7,4,2] + 1313 x[7,5,2] + 768 x[7,6,2] + 1310 x[7,8,2]
   + 812 x[7,9,2] + 974 x[8,0,2] + 1029 x[8,1,2] + 1676 x[8,2,2]
   + 1747 x[8,3,2] + 379 x[8,4,2] + 6 x[8,5,2] + 2075 x[8,6,2]
   + 1310 x[8,7,2] + 2116 x[8,9,2] + 1253 x[9,0,2] + 1092 x[9,1,2]
   + 961 x[9,2,2] + 371 x[9,3,2] + 2066 x[9,4,2] + 2118 x[9,5,2]
   + 59 x[9,6,2] + 812 x[9,7,2] + 2116 x[9,8,2] <= 7000
 distancia_max_k[3]: 300 x[0,1,3] + 713 x[0,2,3] + 890 x[0,3,3]
   + 828 x[0,4,3] + 978 x[0,5,3] + 1202 x[0,6,3] + 476 x[0,7,3]
   + 974 x[0,8,3] + 1253 x[0,9,3] + 300 x[1,0,3] + 825 x[1,2,3]
   + 721 x[1,3,3] + 990 x[1,4,3] + 1031 x[1,5,3] + 1048 x[1,6,3]
   + 281 x[1,7,3] + 1029 x[1,8,3] + 1092 x[1,9,3] + 713 x[2,0,3]
   + 825 x[2,1,3] + 746 x[2,3,3] + 1468 x[2,4,3] + 1681 x[2,5,3]
   + 903 x[2,6,3] + 689 x[2,7,3] + 1676 x[2,8,3] + 961 x[2,9,3]
   + 890 x[3,0,3] + 721 x[3,1,3] + 746 x[3,2,3] + 1696 x[3,4,3]
   + 1749 x[3,5,3] + 328 x[3,6,3] + 441 x[3,7,3] + 1747 x[3,8,3]
   + 371 x[3,9,3] + 828 x[4,0,3] + 990 x[4,1,3] + 1467 x[4,2,3]
   + 1696 x[4,3,3] + 385 x[4,5,3] + 2018 x[4,6,3] + 1257 x[4,7,3]
   + 379 x[4,8,3] + 2066 x[4,9,3] + 978 x[5,0,3] + 1031 x[5,1,3]
   + 1680 x[5,2,3] + 1749 x[5,3,3] + 385 x[5,4,3] + 2077 x[5,6,3]
   + 1313 x[5,7,3] + 6 x[5,8,3] + 2118 x[5,9,3] + 1202 x[6,0,3]
   + 1048 x[6,1,3] + 903 x[6,2,3] + 328 x[6,3,3] + 2018 x[6,4,3]
   + 2077 x[6,5,3] + 768 x[6,7,3] + 2075 x[6,8,3] + 59 x[6,9,3]
   + 476 x[7,0,3] + 281 x[7,1,3] + 689 x[7,2,3] + 441 x[7,3,3]
   + 1257 x[7,4,3] + 1313 x[7,5,3] + 768 x[7,6,3] + 1310 x[7,8,3]
   + 812 x[7,9,3] + 974 x[8,0,3] + 1029 x[8,1,3] + 1676 x[8,2,3]
   + 1747 x[8,3,3] + 379 x[8,4,3] + 6 x[8,5,3] + 2075 x[8,6,3]
   + 1310 x[8,7,3] + 2116 x[8,9,3] + 1253 x[9,0,3] + 1092 x[9,1,3]
   + 961 x[9,2,3] + 371 x[9,3,3] + 2066 x[9,4,3] + 2118 x[9,5,3]
   + 59 x[9,6,3] + 812 x[9,7,3] + 2116 x[9,8,3] <= 7000
 fluxo_y[1]: - y[0,1] + y[1,0] + y[1,2] + y[1,3] + y[1,4] + y[1,5] + y[1,6]
   + y[1,7] + y[1,8] + y[1,9] - y[2,1] - y[3,1] - y[4,1] - y[5,1] - y[6,1]
   - y[7,1] - y[8,1] - y[9,1] = 62
 fluxo_y[2]: - y[0,2] - y[1,2] + y[2,0] + y[2,1] + y[2,3] + y[2,4] + y[2,5]
   + y[2,6] + y[2,7] + y[2,8] + y[2,9] - y[3,2] - y[4,2] - y[5,2] - y[6,2]
   - y[7,2] - y[8,2] - y[9,2] = 17
 fluxo_y[3]: - y[0,3] - y[1,3] - y[2,3] + y[3,0] + y[3,1] + y[3,2] + y[3,4]
   + y[3,5] + y[3,6] + y[3,7] + y[3,8] + y[3,9] - y[4,3] - y[5,3] - y[6,3]
   - y[7,3] - y[8,3] - y[9,3] = 50
 fluxo_y[4]: - y[0,4] - y[1,4] - y[2,4] - y[3,4] + y[4,0] + y[4,1] + y[4,2]
   + y[4,3] + y[4,5] + y[4,6] + y[4,7] + y[4,8] + y[4,9] - y[5,4] - y[6,4]
   - y[7,4] - y[8,4] - y[9,4] = 6
 fluxo_y[5]: - y[0,5] - y[1,5] - y[2,5] - y[3,5] - y[4,5] + y[5,0] + y[5,1]
   + y[5,2] + y[5,3] + y[5,4] + y[5,6] + y[5,7] + y[5,8] + y[5,9] - y[6,5]
   - y[7,5] - y[8,5] - y[9,5] = 49
 fluxo_y[6]: - y[0,6] - y[1,6] - y[2,6] - y[3,6] - y[4,6] - y[5,6] + y[6,0]
   + y[6,1] + y[6,2] + y[6,3] + y[6,4] + y[6,5] + y[6,7] + y[6,8] + y[6,9]
   - y[7,6] - y[8,6] - y[9,6] = 9
 fluxo_y[7]: - y[0,7] - y[1,7] - y[2,7] - y[3,7] - y[4,7] - y[5,7] - y[6,7]
   + y[7,0] + y[7,1] + y[7,2] + y[7,3] + y[7,4] + y[7,5] + y[7,6] + y[7,8]
   + y[7,9] - y[8,7] - y[9,7] = 9
 fluxo_y[8]: - y[0,8] - y[1,8] - y[2,8] - y[3,8] - y[4,8] - y[5,8] - y[6,8]
   - y[7,8] + y[8,0] + y[8,1] + y[8,2] + y[8,3] + y[8,4] + y[8,5] + y[8,6]
   + y[8,7] + y[8,9] - y[9,8] = 15
 fluxo_y[9]: - y[0,9] - y[1,9] - y[2,9] - y[3,9] - y[4,9] - y[5,9] - y[6,9]
   - y[7,9] - y[8,9] + y[9,0] + y[9,1] + y[9,2] + y[9,3] + y[9,4] + y[9,5]
   + y[9,6] + y[9,7] + y[9,8] = 51
 fluxo_z[1]: z[0,1] - z[1,0] - z[1,2] - z[1,3] - z[1,4] - z[1,5] - z[1,6]
   - z[1,7] - z[1,8] - z[1,9] + z[2,1] + z[3,1] + z[4,1] + z[5,1] + z[6,1]
   + z[7,1] + z[8,1] + z[9,1] = 44
 fluxo_z[2]: z[0,2] + z[1,2] - z[2,0] - z[2,1] - z[2,3] - z[2,4] - z[2,5]
   - z[2,6] - z[2,7] - z[2,8] - z[2,9] + z[3,2] + z[4,2] + z[5,2] + z[6,2]
   + z[7,2] + z[8,2] + z[9,2] = 55
 fluxo_z[3]: z[0,3] + z[1,3] + z[2,3] - z[3,0] - z[3,1] - z[3,2] - z[3,4]
   - z[3,5] - z[3,6] - z[3,7] - z[3,8] - z[3,9] + z[4,3] + z[5,3] + z[6,3]
   + z[7,3] + z[8,3] + z[9,3] = 38
 fluxo_z[4]: z[0,4] + z[1,4] + z[2,4] + z[3,4] - z[4,0] - z[4,1] - z[4,2]
   - z[4,3] - z[4,5] - z[4,6] - z[4,7] - z[4,8] - z[4,9] + z[5,4] + z[6,4]
   + z[7,4] + z[8,4] + z[9,4] = 56
 fluxo_z[5]: z[0,5] + z[1,5] + z[2,5] + z[3,5] + z[4,5] - z[5,0] - z[5,1]
   - z[5,2] - z[5,3] - z[5,4] - z[5,6] - z[5,7] - z[5,8] - z[5,9] + z[6,5]
   + z[7,5] + z[8,5] + z[9,5] = 28
 fluxo_z[6]: z[0,6] + z[1,6] + z[2,6] + z[3,6] + z[4,6] + z[5,6] - z[6,0]
   - z[6,1] - z[6,2] - z[6,3] - z[6,4] - z[6,5] - z[6,7] - z[6,8] - z[6,9]
   + z[7,6] + z[8,6] + z[9,6] = 8
 fluxo_z[7]: z[0,7] + z[1,7] + z[2,7] + z[3,7] + z[4,7] + z[5,7] + z[6,7]
   - z[7,0] - z[7,1] - z[7,2] - z[7,3] - z[7,4] - z[7,5] - z[7,6] - z[7,8]
   - z[7,9] + z[8,7] + z[9,7] = 28
 fluxo_z[8]: z[0,8] + z[1,8] + z[2,8] + z[3,8] + z[4,8] + z[5,8] + z[6,8]
   + z[7,8] - z[8,0] - z[8,1] - z[8,2] - z[8,3] - z[8,4] - z[8,5] - z[8,6]
   - z[8,7] - z[8,9] + z[9,8] = 42
 fluxo_z[9]: z[0,9] + z[1,9] + z[2,9] + z[3,9] + z[4,9] + z[5,9] + z[6,9]
   + z[7,9] + z[8,9] - z[9,0] - z[9,1] - z[9,2] - z[9,3] - z[9,4] - z[9,5]
   - z[9,6] - z[9,7] - z[9,8] = 32
 capacidade[0,0]: - 500 x[0,0,1] - 500 x[0,0,2] - 500 x[0,0,3] + y[0,0]
   + z[0,0] <= 0
 capacidade[0,1]: - 500 x[0,1,1] - 500 x[0,1,2] - 500 x[0,1,3] + y[0,1]
   + z[0,1] <= 0
 capacidade[0,2]: - 500 x[0,2,1] - 500 x[0,2,2] - 500 x[0,2,3] + y[0,2]
   + z[0,2] <= 0
 capacidade[0,3]: - 500 x[0,3,1] - 500 x[0,3,2] - 500 x[0,3,3] + y[0,3]
   + z[0,3] <= 0
 capacidade[0,4]: - 500 x[0,4,1] - 500 x[0,4,2] - 500 x[0,4,3] + y[0,4]
   + z[0,4] <= 0
 capacidade[0,5]: - 500 x[0,5,1] - 500 x[0,5,2] - 500 x[0,5,3] + y[0,5]
   + z[0,5] <= 0
 capacidade[0,6]: - 500 x[0,6,1] - 500 x[0,6,2] - 500 x[0,6,3] + y[0,6]
   + z[0,6] <= 0
 capacidade[0,7]: - 500 x[0,7,1] - 500 x[0,7,2] - 500 x[0,7,3] + y[0,7]
   + z[0,7] <= 0
 capacidade[0,8]: - 500 x[0,8,1] - 500 x[0,8,2] - 500 x[0,8,3] + y[0,8]
   + z[0,8] <= 0
 capacidade[0,9]: - 500 x[0,9,1] - 500 x[0,9,2] - 500 x[0,9,3] + y[0,9]
   + z[0,9] <= 0
 capacidade[1,0]: - 500 x[1,0,1] - 500 x[1,0,2] - 500 x[1,0,3] + y[1,0]
   + z[1,0] <= 0
 capacidade[1,1]: - 500 x[1,1,1] - 500 x[1,1,2] - 500 x[1,1,3] + y[1,1]
   + z[1,1] <= 0
 capacidade[1,2]: - 500 x[1,2,1] - 500 x[1,2,2] - 500 x[1,2,3] + y[1,2]
   + z[1,2] <= 0
 capacidade[1,3]: - 500 x[1,3,1] - 500 x[1,3,2] - 500 x[1,3,3] + y[1,3]
   + z[1,3] <= 0
 capacidade[1,4]: - 500 x[1,4,1] - 500 x[1,4,2] - 500 x[1,4,3] + y[1,4]
   + z[1,4] <= 0
 capacidade[1,5]: - 500 x[1,5,1] - 500 x[1,5,2] - 500 x[1,5,3] + y[1,5]
   + z[1,5] <= 0
 capacidade[1,6]: - 500 x[1,6,1] - 500 x[1,6,2] - 500 x[1,6,3] + y[1,6]
   + z[1,6] <= 0
 capacidade[1,7]: - 500 x[1,7,1] - 500 x[1,7,2] - 500 x[1,7,3] + y[1,7]
   + z[1,7] <= 0
 capacidade[1,8]: - 500 x[1,8,1] - 500 x[1,8,2] - 500 x[1,8,3] + y[1,8]
   + z[1,8] <= 0
 capacidade[1,9]: - 500 x[1,9,1] - 500 x[1,9,2] - 500 x[1,9,3] + y[1,9]
   + z[1,9] <= 0
 capacidade[2,0]: - 500 x[2,0,1] - 500 x[2,0,2] - 500 x[2,0,3] + y[2,0]
   + z[2,0] <= 0
 capacidade[2,1]: - 500 x[2,1,1] - 500 x[2,1,2] - 500 x[2,1,3] + y[2,1]
   + z[2,1] <= 0
 capacidade[2,2]: - 500 x[2,2,1] - 500 x[2,2,2] - 500 x[2,2,3] + y[2,2]
   + z[2,2] <= 0
 capacidade[2,3]: - 500 x[2,3,1] - 500 x[2,3,2] - 500 x[2,3,3] + y[2,3]
   + z[2,3] <= 0
 capacidade[2,4]: - 500 x[2,4,1] - 500 x[2,4,2] - 500 x[2,4,3] + y[2,4]
   + z[2,4] <= 0
 capacidade[2,5]: - 500 x[2,5,1] - 500 x[2,5,2] - 500 x[2,5,3] + y[2,5]
   + z[2,5] <= 0
 capacidade[2,6]: - 500 x[2,6,1] - 500 x[2,6,2] - 500 x[2,6,3] + y[2,6]
   + z[2,6] <= 0
 capacidade[2,7]: - 500 x[2,7,1] - 500 x[2,7,2] - 500 x[2,7,3] + y[2,7]
   + z[2,7] <= 0
 capacidade[2,8]: - 500 x[2,8,1] - 500 x[2,8,2] - 500 x[2,8,3] + y[2,8]
   + z[2,8] <= 0
 capacidade[2,9]: - 500 x[2,9,1] - 500 x[2,9,2] - 500 x[2,9,3] + y[2,9]
   + z[2,9] <= 0
 capacidade[3,0]: - 500 x[3,0,1] - 500 x[3,0,2] - 500 x[3,0,3] + y[3,0]
   + z[3,0] <= 0
 capacidade[3,1]: - 500 x[3,1,1] - 500 x[3,1,2] - 500 x[3,1,3] + y[3,1]
   + z[3,1] <= 0
 capacidade[3,2]: - 500 x[3,2,1] - 500 x[3,2,2] - 500 x[3,2,3] + y[3,2]
   + z[3,2] <= 0
 capacidade[3,3]: - 500 x[3,3,1] - 500 x[3,3,2] - 500 x[3,3,3] + y[3,3]
   + z[3,3] <= 0
 capacidade[3,4]: - 500 x[3,4,1] - 500 x[3,4,2] - 500 x[3,4,3] + y[3,4]
   + z[3,4] <= 0
 capacidade[3,5]: - 500 x[3,5,1] - 500 x[3,5,2] - 500 x[3,5,3] + y[3,5]
   + z[3,5] <= 0
 capacidade[3,6]: - 500 x[3,6,1] - 500 x[3,6,2] - 500 x[3,6,3] + y[3,6]
   + z[3,6] <= 0
 capacidade[3,7]: - 500 x[3,7,1] - 500 x[3,7,2] - 500 x[3,7,3] + y[3,7]
   + z[3,7] <= 0
 capacidade[3,8]: - 500 x[3,8,1] - 500 x[3,8,2] - 500 x[3,8,3] + y[3,8]
   + z[3,8] <= 0
 capacidade[3,9]: - 500 x[3,9,1] - 500 x[3,9,2] - 500 x[3,9,3] + y[3,9]
   + z[3,9] <= 0
 capacidade[4,0]: - 500 x[4,0,1] - 500 x[4,0,2] - 500 x[4,0,3] + y[4,0]
   + z[4,0] <= 0
 capacidade[4,1]: - 500 x[4,1,1] - 500 x[4,1,2] - 500 x[4,1,3] + y[4,1]
   + z[4,1] <= 0
 capacidade[4,2]: - 500 x[4,2,1] - 500 x[4,2,2] - 500 x[4,2,3] + y[4,2]
   + z[4,2] <= 0
 capacidade[4,3]: - 500 x[4,3,1] - 500 x[4,3,2] - 500 x[4,3,3] + y[4,3]
   + z[4,3] <= 0
 capacidade[4,4]: - 500 x[4,4,1] - 500 x[4,4,2] - 500 x[4,4,3] + y[4,4]
   + z[4,4] <= 0
 capacidade[4,5]: - 500 x[4,5,1] - 500 x[4,5,2] - 500 x[4,5,3] + y[4,5]
   + z[4,5] <= 0
 capacidade[4,6]: - 500 x[4,6,1] - 500 x[4,6,2] - 500 x[4,6,3] + y[4,6]
   + z[4,6] <= 0
 capacidade[4,7]: - 500 x[4,7,1] - 500 x[4,7,2] - 500 x[4,7,3] + y[4,7]
   + z[4,7] <= 0
 capacidade[4,8]: - 500 x[4,8,1] - 500 x[4,8,2] - 500 x[4,8,3] + y[4,8]
   + z[4,8] <= 0
 capacidade[4,9]: - 500 x[4,9,1] - 500 x[4,9,2] - 500 x[4,9,3] + y[4,9]
   + z[4,9] <= 0
 capacidade[5,0]: - 500 x[5,0,1] - 500 x[5,0,2] - 500 x[5,0,3] + y[5,0]
   + z[5,0] <= 0
 capacidade[5,1]: - 500 x[5,1,1] - 500 x[5,1,2] - 500 x[5,1,3] + y[5,1]
   + z[5,1] <= 0
 capacidade[5,2]: - 500 x[5,2,1] - 500 x[5,2,2] - 500 x[5,2,3] + y[5,2]
   + z[5,2] <= 0
 capacidade[5,3]: - 500 x[5,3,1] - 500 x[5,3,2] - 500 x[5,3,3] + y[5,3]
   + z[5,3] <= 0
 capacidade[5,4]: - 500 x[5,4,1] - 500 x[5,4,2] - 500 x[5,4,3] + y[5,4]
   + z[5,4] <= 0
 capacidade[5,5]: - 500 x[5,5,1] - 500 x[5,5,2] - 500 x[5,5,3] + y[5,5]
   + z[5,5] <= 0
 capacidade[5,6]: - 500 x[5,6,1] - 500 x[5,6,2] - 500 x[5,6,3] + y[5,6]
   + z[5,6] <= 0
 capacidade[5,7]: - 500 x[5,7,1] - 500 x[5,7,2] - 500 x[5,7,3] + y[5,7]
   + z[5,7] <= 0
 capacidade[5,8]: - 500 x[5,8,1] - 500 x[5,8,2] - 500 x[5,8,3] + y[5,8]
   + z[5,8] <= 0
 capacidade[5,9]: - 500 x[5,9,1] - 500 x[5,9,2] - 500 x[5,9,3] + y[5,9]
   + z[5,9] <= 0
 capacidade[6,0]: - 500 x[6,0,1] - 500 x[6,0,2] - 500 x[6,0,3] + y[6,0]
   + z[6,0] <= 0
 capacidade[6,1]: - 500 x[6,1,1] - 500 x[6,1,2] - 500 x[6,1,3] + y[6,1]
   + z[6,1] <= 0
 capacidade[6,2]: - 500 x[6,2,1] - 500 x[6,2,2] - 500 x[6,2,3] + y[6,2]
   + z[6,2] <= 0
 capacidade[6,3]: - 500 x[6,3,1] - 500 x[6,3,2] - 500 x[6,3,3] + y[6,3]
   + z[6,3] <= 0
 capacidade[6,4]: - 500 x[6,4,1] - 500 x[6,4,2] - 500 x[6,4,3] + y[6,4]
   + z[6,4] <= 0
 capacidade[6,5]: - 500 x[6,5,1] - 500 x[6,5,2] - 500 x[6,5,3] + y[6,5]
   + z[6,5] <= 0
 capacidade[6,6]: - 500 x[6,6,1] - 500 x[6,6,2] - 500 x[6,6,3] + y[6,6]
   + z[6,6] <= 0
 capacidade[6,7]: - 500 x[6,7,1] - 500 x[6,7,2] - 500 x[6,7,3] + y[6,7]
   + z[6,7] <= 0
 capacidade[6,8]: - 500 x[6,8,1] - 500 x[6,8,2] - 500 x[6,8,3] + y[6,8]
   + z[6,8] <= 0
 capacidade[6,9]: - 500 x[6,9,1] - 500 x[6,9,2] - 500 x[6,9,3] + y[6,9]
   + z[6,9] <= 0
 capacidade[7,0]: - 500 x[7,0,1] - 500 x[7,0,2] - 500 x[7,0,3] + y[7,0]
   + z[7,0] <= 0
 capacidade[7,1]: - 500 x[7,1,1] - 500 x[7,1,2] - 500 x[7,1,3] + y[7,1]
   + z[7,1] <= 0
 capacidade[7,2]: - 500 x[7,2,1] - 500 x[7,2,2] - 500 x[7,2,3] + y[7,2]
   + z[7,2] <= 0
 capacidade[7,3]: - 500 x[7,3,1] - 500 x[7,3,2] - 500 x[7,3,3] + y[7,3]
   + z[7,3] <= 0
 capacidade[7,4]: - 500 x[7,4,1] - 500 x[7,4,2] - 500 x[7,4,3] + y[7,4]
   + z[7,4] <= 0
 capacidade[7,5]: - 500 x[7,5,1] - 500 x[7,5,2] - 500 x[7,5,3] + y[7,5]
   + z[7,5] <= 0
 capacidade[7,6]: - 500 x[7,6,1] - 500 x[7,6,2] - 500 x[7,6,3] + y[7,6]
   + z[7,6] <= 0
 capacidade[7,7]: - 500 x[7,7,1] - 500 x[7,7,2] - 500 x[7,7,3] + y[7,7]
   + z[7,7] <= 0
 capacidade[7,8]: - 500 x[7,8,1] - 500 x[7,8,2] - 500 x[7,8,3] + y[7,8]
   + z[7,8] <= 0
 capacidade[7,9]: - 500 x[7,9,1] - 500 x[7,9,2] - 500 x[7,9,3] + y[7,9]
   + z[7,9] <= 0
 capacidade[8,0]: - 500 x[8,0,1] - 500 x[8,0,2] - 500 x[8,0,3] + y[8,0]
   + z[8,0] <= 0
 capacidade[8,1]: - 500 x[8,1,1] - 500 x[8,1,2] - 500 x[8,1,3] + y[8,1]
   + z[8,1] <= 0
 capacidade[8,2]: - 500 x[8,2,1] - 500 x[8,2,2] - 500 x[8,2,3] + y[8,2]
   + z[8,2] <= 0
 capacidade[8,3]: - 500 x[8,3,1] - 500 x[8,3,2] - 500 x[8,3,3] + y[8,3]
   + z[8,3] <= 0
 capacidade[8,4]: - 500 x[8,4,1] - 500 x[8,4,2] - 500 x[8,4,3] + y[8,4]
   + z[8,4] <= 0
 capacidade[8,5]: - 500 x[8,5,1] - 500 x[8,5,2] - 500 x[8,5,3] + y[8,5]
   + z[8,5] <= 0
 capacidade[8,6]: - 500 x[8,6,1] - 500 x[8,6,2] - 500 x[8,6,3] + y[8,6]
   + z[8,6] <= 0
 capacidade[8,7]: - 500 x[8,7,1] - 500 x[8,7,2] - 500 x[8,7,3] + y[8,7]
   + z[8,7] <= 0
 capacidade[8,8]: - 500 x[8,8,1] - 500 x[8,8,2] - 500 x[8,8,3] + y[8,8]
   + z[8,8] <= 0
 capacidade[8,9]: - 500 x[8,9,1] - 500 x[8,9,2] - 500 x[8,9,3] + y[8,9]
   + z[8,9] <= 0
 capacidade[9,0]: - 500 x[9,0,1] - 500 x[9,0,2] - 500 x[9,0,3] + y[9,0]
   + z[9,0] <= 0
 capacidade[9,1]: - 500 x[9,1,1] - 500 x[9,1,2] - 500 x[9,1,3] + y[9,1]
   + z[9,1] <= 0
 capacidade[9,2]: - 500 x[9,2,1] - 500 x[9,2,2] - 500 x[9,2,3] + y[9,2]
   + z[9,2] <= 0
 capacidade[9,3]: - 500 x[9,3,1] - 500 x[9,3,2] - 500 x[9,3,3] + y[9,3]
   + z[9,3] <= 0
 capacidade[9,4]: - 500 x[9,4,1] - 500 x[9,4,2] - 500 x[9,4,3] + y[9,4]
   + z[9,4] <= 0
 capacidade[9,5]: - 500 x[9,5,1] - 500 x[9,5,2] - 500 x[9,5,3] + y[9,5]
   + z[9,5] <= 0
 capacidade[9,6]: - 500 x[9,6,1] - 500 x[9,6,2] - 500 x[9,6,3] + y[9,6]
   + z[9,6] <= 0
 capacidade[9,7]: - 500 x[9,7,1] - 500 x[9,7,2] - 500 x[9,7,3] + y[9,7]
   + z[9,7] <= 0
 capacidade[9,8]: - 500 x[9,8,1] - 500 x[9,8,2] - 500 x[9,8,3] + y[9,8]
   + z[9,8] <= 0
 capacidade[9,9]: - 500 x[9,9,1] - 500 x[9,9,2] - 500 x[9,9,3] + y[9,9]
   + z[9,9] <= 0
Bounds
Binaries
 x[0,0,1] x[0,0,2] x[0,0,3] x[0,1,1] x[0,1,2] x[0,1,3] x[0,2,1] x[0,2,2]
 x[0,2,3] x[0,3,1] x[0,3,2] x[0,3,3] x[0,4,1] x[0,4,2] x[0,4,3] x[0,5,1]
 x[0,5,2] x[0,5,3] x[0,6,1] x[0,6,2] x[0,6,3] x[0,7,1] x[0,7,2] x[0,7,3]
 x[0,8,1] x[0,8,2] x[0,8,3] x[0,9,1] x[0,9,2] x[0,9,3] x[1,0,1] x[1,0,2]
 x[1,0,3] x[1,1,1] x[1,1,2] x[1,1,3] x[1,2,1] x[1,2,2] x[1,2,3] x[1,3,1]
 x[1,3,2] x[1,3,3] x[1,4,1] x[1,4,2] x[1,4,3] x[1,5,1] x[1,5,2] x[1,5,3]
 x[1,6,1] x[1,6,2] x[1,6,3] x[1,7,1] x[1,7,2] x[1,7,3] x[1,8,1] x[1,8,2]
 x[1,8,3] x[1,9,1] x[1,9,2] x[1,9,3] x[2,0,1] x[2,0,2] x[2,0,3] x[2,1,1]
 x[2,1,2] x[2,1,3] x[2,2,1] x[2,2,2] x[2,2,3] x[2,3,1] x[2,3,2] x[2,3,3]
 x[2,4,1] x[2,4,2] x[2,4,3] x[2,5,1] x[2,5,2] x[2,5,3] x[2,6,1] x[2,6,2]
 x[2,6,3] x[2,7,1] x[2,7,2] x[2,7,3] x[2,8,1] x[2,8,2] x[2,8,3] x[2,9,1]
 x[2,9,2] x[2,9,3] x[3,0,1] x[3,0,2] x[3,0,3] x[3,1,1] x[3,1,2] x[3,1,3]
 x[3,2,1] x[3,2,2] x[3,2,3] x[3,3,1] x[3,3,2] x[3,3,3] x[3,4,1] x[3,4,2]
 x[3,4,3] x[3,5,1] x[3,5,2] x[3,5,3] x[3,6,1] x[3,6,2] x[3,6,3] x[3,7,1]
 x[3,7,2] x[3,7,3] x[3,8,1] x[3,8,2] x[3,8,3] x[3,9,1] x[3,9,2] x[3,9,3]
 x[4,0,1] x[4,0,2] x[4,0,3] x[4,1,1] x[4,1,2] x[4,1,3] x[4,2,1] x[4,2,2]
 x[4,2,3] x[4,3,1] x[4,3,2] x[4,3,3] x[4,4,1] x[4,4,2] x[4,4,3] x[4,5,1]
 x[4,5,2] x[4,5,3] x[4,6,1] x[4,6,2] x[4,6,3] x[4,7,1] x[4,7,2] x[4,7,3]
 x[4,8,1] x[4,8,2] x[4,8,3] x[4,9,1] x[4,9,2] x[4,9,3] x[5,0,1] x[5,0,2]
 x[5,0,3] x[5,1,1] x[5,1,2] x[5,1,3] x[5,2,1] x[5,2,2] x[5,2,3] x[5,3,1]
 x[5,3,2] x[5,3,3] x[5,4,1] x[5,4,2] x[5,4,3] x[5,5,1] x[5,5,2] x[5,5,3]
 x[5,6,1] x[5,6,2] x[5,6,3] x[5,7,1] x[5,7,2] x[5,7,3] x[5,8,1] x[5,8,2]
 x[5,8,3] x[5,9,1] x[5,9,2] x[5,9,3] x[6,0,1] x[6,0,2] x[6,0,3] x[6,1,1]
 x[6,1,2] x[6,1,3] x[6,2,1] x[6,2,2] x[6,2,3] x[6,3,1] x[6,3,2] x[6,3,3]
 x[6,4,1] x[6,4,2] x[6,4,3] x[6,5,1] x[6,5,2] x[6,5,3] x[6,6,1] x[6,6,2]
 x[6,6,3] x[6,7,1] x[6,7,2] x[6,7,3] x[6,8,1] x[6,8,2] x[6,8,3] x[6,9,1]
 x[6,9,2] x[6,9,3] x[7,0,1] x[7,0,2] x[7,0,3] x[7,1,1] x[7,1,2] x[7,1,3]
 x[7,2,1] x[7,2,2] x[7,2,3] x[7,3,1] x[7,3,2] x[7,3,3] x[7,4,1] x[7,4,2]
 x[7,4,3] x[7,5,1] x[7,5,2] x[7,5,3] x[7,6,1] x[7,6,2] x[7,6,3] x[7,7,1]
 x[7,7,2] x[7,7,3] x[7,8,1] x[7,8,2] x[7,8,3] x[7,9,1] x[7,9,2] x[7,9,3]
 x[8,0,1] x[8,0,2] x[8,0,3] x[8,1,1] x[8,1,2] x[8,1,3] x[8,2,1] x[8,2,2]
 x[8,2,3] x[8,3,1] x[8,3,2] x[8,3,3] x[8,4,1] x[8,4,2] x[8,4,3] x[8,5,1]
 x[8,5,2] x[8,5,3] x[8,6,1] x[8,6,2] x[8,6,3] x[8,7,1] x[8,7,2] x[8,7,3]
 x[8,8,1] x[8,8,2] x[8,8,3] x[8,9,1] x[8,9,2] x[8,9,3] x[9,0,1] x[9,0,2]
 x[9,0,3] x[9,1,1] x[9,1,2] x[9,1,3] x[9,2,1] x[9,2,2] x[9,2,3] x[9,3,1]
 x[9,3,2] x[9,3,3] x[9,4,1] x[9,4,2] x[9,4,3] x[9,5,1] x[9,5,2] x[9,5,3]
 x[9,6,1] x[9,6,2] x[9,6,3] x[9,7,1] x[9,7,2] x[9,7,3] x[9,8,1] x[9,8,2]
 x[9,8,3] x[9,9,1] x[9,9,2] x[9,9,3]
Generals
 y[0,0] y[0,1] y[0,2] y[0,3] y[0,4] y[0,5] y[0,6] y[0,7] y[0,8] y[0,9]
 y[1,0] y[1,1] y[1,2] y[1,3] y[1,4] y[1,5] y[1,6] y[1,7] y[1,8] y[1,9]
 y[2,0] y[2,1] y[2,2] y[2,3] y[2,4] y[2,5] y[2,6] y[2,7] y[2,8] y[2,9]
 y[3,0] y[3,1] y[3,2] y[3,3] y[3,4] y[3,5] y[3,6] y[3,7] y[3,8] y[3,9]
 y[4,0] y[4,1] y[4,2] y[4,3] y[4,4] y[4,5] y[4,6] y[4,7] y[4,8] y[4,9]
 y[5,0] y[5,1] y[5,2] y[5,3] y[5,4] y[5,5] y[5,6] y[5,7] y[5,8] y[5,9]
 y[6,0] y[6,1] y[6,2] y[6,3] y[6,4] y[6,5] y[6,6] y[6,7] y[6,8] y[6,9]
 y[7,0] y[7,1] y[7,2] y[7,3] y[7,4] y[7,5] y[7,6] y[7,7] y[7,8] y[7,9]
 y[8,0] y[8,1] y[8,2] y[8,3] y[8,4] y[8,5] y[8,6] y[8,7] y[8,8] y[8,9]
 y[9,0] y[9,1] y[9,2] y[9,3] y[9,4] y[9,5] y[9,6] y[9,7] y[9,8] y[9,9]
 z[0,0] z[0,1] z[0,2] z[0,3] z[0,4] z[0,5] z[0,6] z[0,7] z[0,8] z[0,9]
 z[1,0] z[1,1] z[1,2] z[1,3] z[1,4] z[1,5] z[1,6] z[1,7] z[1,8] z[1,9]
 z[2,0] z[2,1] z[2,2] z[2,3] z[2,4] z[2,5] z[2,6] z[2,7] z[2,8] z[2,9]
 z[3,0] z[3,1] z[3,2] z[3,3] z[3,4] z[3,5] z[3,6] z[3,7] z[3,8] z[3,9]
 z[4,0] z[4,1] z[4,2] z[4,3] z[4,4] z[4,5] z[4,6] z[4,7] z[4,8] z[4,9]
 z[5,0] z[5,1] z[5,2] z[5,3] z[5,4] z[5,5] z[5,6] z[5,7] z[5,8] z[5,9]
 z[6,0] z[6,1] z[6,2] z[6,3] z[6,4] z[6,5] z[6,6] z[6,7] z[6,8] z[6,9]
 z[7,0] z[7,1] z[7,2] z[7,3] z[7,4] z[7,5] z[7,6] z[7,7] z[7,8] z[7,9]
 z[8,0] z[8,1] z[8,2] z[8,3] z[8,4] z[8,5] z[8,6] z[8,7] z[8,8] z[8,9]
 z[9,0] z[9,1] z[9,2] z[9,3] z[9,4] z[9,5] z[9,6] z[9,7] z[9,8] z[9,9]
End
